20
299
436
false
0.25
41 8 14 43 14 8 21 42 40 8 35 31 45 43 31 3 11 43 2 12
2 55 79 52 3 60 35 24 91 36 39 43 51 61 94 84 41 43 71 2
0 0 69 98 0 96 0 0 0 0 72 0 86 0 2 84 0 0 0 0
0 0 3 0 0 0 0 0 0 0 0 0 0 5 0 0 0 0 8
0 0 0 0 0 14 89 0 0 0 0 0 0 0 0 0 0 0
0 60 0 0 0 0 0 77 17 93 0 71 1 0 0 0 0
0 0 0 72 0 96 0 0 40 0 96 0 0 0 35 0
0 0 0 0 0 0 0 0 0 93 32 0 7 0 37
0 0 0 0 0 0 0 95 0 0 16 97 59 0
0 0 44 0 0 0 0 0 0 0 0 72 0
0 0 0 0 4 0 0 0 0 0 0 0
0 0 0 0 0 0 0 0 0 0 24
0 92 52 88 0 32 0 0 12 0
0 0 0 4 0 0 0 0 0
0 5 91 11 0 0 31 0
0 0 0 0 0 71 0
0 0 0 13 0 17
0 0 0 0 0
0 0 0 0
0 0 0
0 4
0 0 0 0 0 0 0 65 0 0 0 0 0 0 99 0 0 0 0
0 0 0 94 0 78 0 38 15 0 0 0 0 0 34 80 52 0
0 51 78 0 0 0 3 0 0 0 66 48 0 76 27 0 0
0 0 0 0 0 0 0 0 0 0 85 55 33 0 0 0
0 0 0 46 0 0 0 0 0 0 0 0 0 0 0
0 0 0 0 0 0 0 0 43 0 50 1 0 0
0 0 0 0 0 0 0 83 0 57 78 0 0
0 0 0 0 0 0 0 0 0 14 0 0
0 21 0 0 1 0 0 0 32 0 0
0 0 0 51 0 0 19 0 0 0
0 0 0 0 0 83 0 34 0
0 0 0 85 0 78 78 81
0 0 33 25 0 0 0
0 0 0 0 0 0
0 0 0 94 0
0 0 0 0
0 98 0
0 0
0
0 0 0 74 98 0 0 47 0 0 0 0 0 0 0 48 77 0
0 0 88 0 0 0 19 0 0 0 0 0 48 67 0 0 0
0 0 0 0 76 81 0 0 0 23 0 0 0 56 0 0
0 0 0 0 0 0 0 0 41 0 0 0 0 60 0
0 0 0 0 0 0 0 6 0 0 0 59 0 0
0 98 0 0 0 0 0 0 0 0 0 0 0
0 0 0 0 0 0 0 0 65 0 0 0
0 98 12 0 0 0 0 0 0 0 34
0 0 0 0 19 0 0 0 0 0
0 0 29 0 42 0 0 0 8
0 0 0 44 0 0 88 0
0 0 0 98 0 0 67
0 91 43 82 71 0
0 0 0 0 0
0 76 0 0
0 90 0
0 15
0
0 0 0 0 0 16 0 0 0 0 0 18 42 0 92 0 72
0 0 0 0 0 0 0 0 0 71 0 0 0 89 0 0
0 0 38 0 64 0 93 0 0 0 59 0 11 0 0
0 0 0 0 0 70 0 0 0 0 0 0 0 0
0 9 0 0 0 0 0 0 0 0 0 0 0
0 0 0 0 98 0 0 0 55 0 0 0
0 0 66 34 11 0 77 0 0 0 0
0 99 0 0 0 0 0 0 0 0
0 16 0 58 89 31 68 0 0
0 0 0 0 0 0 92 0
0 0 0 0 0 0 0
0 0 0 0 0 0
0 0 99 42 0
0 35 0 0
0 38 23
0 0
0
0 0 0 0 0 0 0 0 0 0 0 74 0 0 0 0
0 0 100 0 0 0 2 52 80 0 0 0 67 0 0
0 0 0 0 0 0 0 0 0 0 0 0 0 2
0 79 0 0 25 0 63 0 0 0 54 0 0
0 0 0 0 0 0 0 0 20 93 82 0
0 0 97 16 0 0 0 0 0 0 0
0 0 0 0 0 0 0 53 0 19
0 0 0 0 0 43 0 0 93
0 0 0 0 36 33 29 64
0 45 93 0 91 0 59
0 19 89 0 0 0
0 0 0 0 0
0 0 0 0
0 0 0
0 63
0
0 0 55 0 7 0 0 60 0 0 0 0 0 0 0
0 0 0 0 0 0 0 0 0 0 0 0 0 59
0 71 0 0 99 0 0 0 0 0 47 0 8
0 0 0 0 0 96 0 0 0 12 0 0
0 0 92 0 51 0 0 0 0 0 0
0 93 0 3 0 0 2 47 0 0
0 0 0 0 0 0 0 92 0
0 0 0 0 0 0 0 0
0 0 0 69 0 0 0
0 75 0 48 0 0
0 73 0 8 0
0 0 98 0
0 0 65
0 0
0
0 0 0 0 0 0 0 0 0 0 0 0 71 0
0 72 0 72 11 0 43 0 69 0 0 0 0
0 0 22 0 0 0 0 22 90 0 0 0
0 0 0 0 0 0 0 86 60 0 0
0 0 0 0 0 0 45 0 0 0
0 58 0 4 0 83 0 69 0
0 0 24 0 0 0 55 20
0 0 0 0 0 0 0
0 67 0 0 0 0
0 94 0 12 0
0 0 95 0
0 0 0
0 0
0
0 27 0 88 0 0 0 0 0 70 0 0 47
0 2 0 0 0 0 0 4 0 77 0 0
0 0 0 0 0 0 0 70 0 0 51
0 0 0 99 0 0 0 0 0 0
0 89 0 70 57 0 0 0 0
0 0 0 100 0 0 0 0
0 0 0 0 0 0 0
0 0 0 0 0 56
0 0 0 0 37
0 0 0 0
0 0 82
0 27
0
0 0 0 99 0 90 0 0 0 0 0 0
0 0 68 0 28 0 0 0 0 0 39
0 0 0 0 0 0 0 0 28 0
0 0 0 48 0 0 0 41 0
0 72 72 0 0 0 15 0
0 0 0 30 0 0 0
0 0 0 32 0 0
0 0 0 0 0
0 0 84 79
0 9 0
0 0
0
0 0 34 81 0 0 0 73 76 0 0
0 0 0 0 41 0 0 0 0 0
0 0 0 0 9 0 36 0 0
0 32 0 47 0 84 0 87
0 0 40 0 0 0 0
0 46 0 32 0 0
0 0 0 0 0
0 0 0 0
0 83 0
0 0
0
0 64 72 0 0 0 68 85 0 0
0 0 0 0 44 0 0 0 0
0 0 0 14 0 0 39 0
0 0 0 0 0 15 0
0 79 0 0 58 93
0 0 84 0 0
0 0 0 0
0 0 0
0 0
0
0 0 0 0 0 0 0 74 0
0 0 0 0 0 55 0 84
0 0 0 58 0 0 0
0 0 64 12 0 31
0 19 86 33 0
0 0 0 48
0 0 0
0 75
0
0 37 74 0 0 0 69 0
0 0 0 0 0 0 0
0 0 0 0 73 0
0 8 95 67 0
0 0 76 0
0 90 77
0 0
0
0 0 66 8 0 78 31
0 0 0 47 0 0
0 0 0 0 0
0 0 0 0
0 0 0
0 0
0
0 0 0 0 0 0
0 0 0 0 0
0 0 0 0
0 17 0
0 24
0
0 0 0 0 33
0 48 0 0
0 0 0
0 40
0
0 0 0 0
0 0 0
0 0
0
0 73 56
0 0
0
0 0
0
0
2771 2373 2761 3018 2426 2738 1814 2601 2485 2484 2326 3214 2958 2260 2547 2817 2759 3440 3146 1941
67.58536585365853 296.625 197.21428571428572 70.18604651162791 173.28571428571428 342.25 86.38095238095238 61.92857142857143 62.125 310.5 66.45714285714286 103.6774193548387 65.73333333333333 52.55813953488372 82.16129032258064 939.0 250.8181818181818 80.0 1573.0 161.75
